clasp version 3.1.0
Reading from ...abi\satisfiability_utills_grounded.asp
Solving...
Answer: 1
arg2(redSphere) arg2(yellowSquare) arg2(pinkRectangle) arg2(blueSquare) arg2(triangle) arg2(redSquare) direction(east) direction(left) direction(below) direction(above) direction(right) observed(relative_position(pinkRectangle,triangle,left),1) observed(relative_position(triangle,blueSquare,left),1) time(1) holdsAt(relative_position(redSquare,triangle,right),1) holdsAt(relative_position(triangle,triangle,right),1) holdsAt(relative_position(blueSquare,triangle,right),1) holdsAt(relative_position(pinkRectangle,triangle,right),1) holdsAt(relative_position(yellowSquare,triangle,right),1) holdsAt(relative_position(redSphere,triangle,right),1) holdsAt(relative_position(redSquare,pinkRectangle,right),1) holdsAt(relative_position(triangle,pinkRectangle,right),1) holdsAt(relative_position(blueSquare,pinkRectangle,right),1) holdsAt(relative_position(pinkRectangle,pinkRectangle,right),1) holdsAt(relative_position(yellowSquare,pinkRectangle,right),1) holdsAt(relative_position(redSphere,pinkRectangle,right),1) holdsAt(relative_position(blueSquare,redSquare,right),1) holdsAt(relative_position(blueSquare,blueSquare,right),1) holdsAt(relative_position(blueSquare,yellowSquare,right),1) holdsAt(relative_position(blueSquare,redSphere,right),1) holdsAt(relative_position(triangle,redSquare,right),1) holdsAt(relative_position(triangle,blueSquare,right),1) holdsAt(relative_position(triangle,yellowSquare,right),1) holdsAt(relative_position(triangle,redSphere,right),1) holdsAt(relative_position(triangle,redSquare,left),1) holdsAt(relative_position(triangle,triangle,left),1) holdsAt(relative_position(triangle,blueSquare,left),1) holdsAt(relative_position(triangle,pinkRectangle,left),1) holdsAt(relative_position(triangle,yellowSquare,left),1) holdsAt(relative_position(triangle,redSphere,left),1) holdsAt(relative_position(pinkRectangle,redSquare,left),1) holdsAt(relative_position(pinkRectangle,triangle,left),1) holdsAt(relative_position(pinkRectangle,blueSquare,left),1) holdsAt(relative_position(pinkRectangle,pinkRectangle,left),1) holdsAt(relative_position(pinkRectangle,yellowSquare,left),1) holdsAt(relative_position(pinkRectangle,redSphere,left),1)
SATISFIABLE

Models       : 1     
Calls        : 1
Time         : 0.000s (Solving: 0.00s 1st Model: 0.00s Unsat: 0.00s)
CPU Time     : 0.000s
